NAME /Users/henri/Research/solvers/instances/idol-instances/robust/collection/cbp_Subramanyam_et_al_2020/CapBud_N15_16/models/uncertain_technology_matrix/
ROWS
 N  OBJ
 L  capacity
 L  c_1935
 L  c_1936
 L  c_1937
 L  c_1938
 L  c_1939
 L  c_1940
 L  c_1941
 L  c_1942
 L  c_1943
 L  c_1944
 L  c_1945
 L  c_1946
 L  c_1947
 L  c_1948
 L  c_1949
COLUMNS
    MARKER    'MARKER'                 'INTORG'
    x_0        OBJ        -9.36554
    x_0        c_1935     1
    x_0        capacity   1.87311
    x_1        OBJ        -7.89213
    x_1        c_1936     1
    x_1        capacity   1.57843
    x_2        OBJ        -8.86507
    x_2        c_1937     1
    x_2        capacity   1.77301
    x_3        OBJ        -1.61669
    x_3        c_1938     1
    x_3        capacity   0.323338
    x_4        OBJ        -6.43521
    x_4        c_1939     1
    x_4        capacity   1.28704
    x_5        OBJ        -0.799077
    x_5        c_1940     1
    x_5        capacity   0.159815
    x_6        OBJ        -9.79954
    x_6        c_1941     1
    x_6        capacity   1.95991
    x_7        OBJ        -6.98279
    x_7        c_1942     1
    x_7        capacity   1.39656
    x_8        OBJ        -1.04226
    x_8        c_1943     1
    x_8        capacity   0.208453
    x_9        OBJ        -7.93
    x_9        c_1944     1
    x_9        capacity   1.586
    x_10       OBJ        -4.62308
    x_10       c_1945     1
    x_10       capacity   0.924616
    x_11       OBJ        -0.795178
    x_11       c_1946     1
    x_11       capacity   0.159036
    x_12       OBJ        -8.04369
    x_12       c_1947     1
    x_12       capacity   1.60874
    x_13       OBJ        -0.352547
    x_13       c_1948     1
    x_13       capacity   0.0705093
    x_14       OBJ        -7.95331
    x_14       c_1949     1
    x_14       capacity   1.59066
    y_0        OBJ        -7.49243
    y_0        c_1935     1
    y_0        capacity   1.87311
    y_1        OBJ        -6.31371
    y_1        c_1936     1
    y_1        capacity   1.57843
    y_2        OBJ        -7.09205
    y_2        c_1937     1
    y_2        capacity   1.77301
    y_3        OBJ        -1.29335
    y_3        c_1938     1
    y_3        capacity   0.323338
    y_4        OBJ        -5.14817
    y_4        c_1939     1
    y_4        capacity   1.28704
    y_5        OBJ        -0.639262
    y_5        c_1940     1
    y_5        capacity   0.159815
    y_6        OBJ        -7.83963
    y_6        c_1941     1
    y_6        capacity   1.95991
    y_7        OBJ        -5.58623
    y_7        c_1942     1
    y_7        capacity   1.39656
    y_8        OBJ        -0.833811
    y_8        c_1943     1
    y_8        capacity   0.208453
    y_9        OBJ        -6.344
    y_9        c_1944     1
    y_9        capacity   1.586
    y_10       OBJ        -3.69846
    y_10       c_1945     1
    y_10       capacity   0.924616
    y_11       OBJ        -0.636143
    y_11       c_1946     1
    y_11       capacity   0.159036
    y_12       OBJ        -6.43495
    y_12       c_1947     1
    y_12       capacity   1.60874
    y_13       OBJ        -0.282037
    y_13       c_1948     1
    y_13       capacity   0.0705093
    y_14       OBJ        -6.36265
    y_14       c_1949     1
    y_14       capacity   1.59066
    MARKER    'MARKER'                 'INTEND'
RHS
    RHS       capacity   41.2481
    RHS       c_1935     1
    RHS       c_1936     1
    RHS       c_1937     1
    RHS       c_1938     1
    RHS       c_1939     1
    RHS       c_1940     1
    RHS       c_1941     1
    RHS       c_1942     1
    RHS       c_1943     1
    RHS       c_1944     1
    RHS       c_1945     1
    RHS       c_1946     1
    RHS       c_1947     1
    RHS       c_1948     1
    RHS       c_1949     1
BOUNDS
 LI BND       x_0        0
 UI BND       x_0        1
 LI BND       x_1        0
 UI BND       x_1        1
 LI BND       x_2        0
 UI BND       x_2        1
 LI BND       x_3        0
 UI BND       x_3        1
 LI BND       x_4        0
 UI BND       x_4        1
 LI BND       x_5        0
 UI BND       x_5        1
 LI BND       x_6        0
 UI BND       x_6        1
 LI BND       x_7        0
 UI BND       x_7        1
 LI BND       x_8        0
 UI BND       x_8        1
 LI BND       x_9        0
 UI BND       x_9        1
 LI BND       x_10       0
 UI BND       x_10       1
 LI BND       x_11       0
 UI BND       x_11       1
 LI BND       x_12       0
 UI BND       x_12       1
 LI BND       x_13       0
 UI BND       x_13       1
 LI BND       x_14       0
 UI BND       x_14       1
 LI BND       y_0        0
 UI BND       y_0        1
 LI BND       y_1        0
 UI BND       y_1        1
 LI BND       y_2        0
 UI BND       y_2        1
 LI BND       y_3        0
 UI BND       y_3        1
 LI BND       y_4        0
 UI BND       y_4        1
 LI BND       y_5        0
 UI BND       y_5        1
 LI BND       y_6        0
 UI BND       y_6        1
 LI BND       y_7        0
 UI BND       y_7        1
 LI BND       y_8        0
 UI BND       y_8        1
 LI BND       y_9        0
 UI BND       y_9        1
 LI BND       y_10       0
 UI BND       y_10       1
 LI BND       y_11       0
 UI BND       y_11       1
 LI BND       y_12       0
 UI BND       y_12       1
 LI BND       y_13       0
 UI BND       y_13       1
 LI BND       y_14       0
 UI BND       y_14       1
ENDATA
